
set N:= 1 2 3 4 5;
set E:= (1,2) (2,1) (1,3) (3,1) (2,4) (3,4) (3,5) (4,5); 

param d :=
1 2 0.5
1 3 0.7
2 4 1.2
3 4 1.3
3 5 1.1
4 5 0.9
2 1 2
3 1 0.7
;

param b :=
1 1 
2 0
3 0
4 0
5 -1;
